
n_res = 8;
rcap = [33, 34, 33, 26, 746, 773, 786, 751];
rtype = [1, 1, 1, 1, 2, 2, 2, 2];
n_tasks = 50;
modes =  [{1, 2, 3}, {4, 5, 6}, {7, 8, 9}, {10, 11, 12}, {13, 14, 15}, {16, 17, 18}, {19, 20, 21}, {22, 23, 24}, {25, 26, 27}, {28, 29, 30}, {31, 32, 33}, {34, 35, 36}, {37, 38, 39}, {40, 41, 42}, {43, 44, 45}, {46, 47, 48}, {49, 50, 51}, {52, 53, 54}, {55, 56, 57}, {58, 59, 60}, {61, 62, 63}, {64, 65, 66}, {67, 68, 69}, {70, 71, 72}, {73, 74, 75}, {76, 77, 78}, {79, 80, 81}, {82, 83, 84}, {85, 86, 87}, {88, 89, 90}, {91, 92, 93}, {94, 95, 96}, {97, 98, 99}, {100, 101, 102}, {103, 104, 105}, {106, 107, 108}, {109, 110, 111}, {112, 113, 114}, {115, 116, 117}, {118, 119, 120}, {121, 122, 123}, {124, 125, 126}, {127, 128, 129}, {130, 131, 132}, {133, 134, 135}, {136, 137, 138}, {139, 140, 141}, {142, 143, 144}, {145, 146, 147}, {148, 149, 150}];
succ =  [{26, 22, 20, 18, 11, 5}, {29, 28, 26, 16, 10}, {33, 28, 23, 15, 11}, {29, 23, 22, 19, 11}, {29, 28, 27, 10}, {33, 29, 26, 10}, {29, 18, 16, 11}, {40, 38, 33, 32, 27, 23, 19}, {38, 29, 28, 26, 23, 19}, {40, 32, 25, 23, 19}, {40, 34, 32, 31, 30, 27, 25, 24}, {40, 33, 32, 31, 30, 29, 28, 25}, {49, 48, 40, 37, 34, 33, 31, 29, 27, 25}, {49, 40, 38, 37, 33, 30, 23}, {31, 25, 19}, {50, 48, 40, 38, 37, 34, 33, 32, 30}, {49, 38, 24, 23}, {48, 39, 38, 37, 34, 32, 31}, {50, 49, 36, 34, 30, 24}, {49, 48, 46, 40, 37, 35, 33, 30}, {49, 48, 46, 40, 38, 37, 35, 33}, {49, 40, 36, 35, 24}, {50, 48, 46, 39, 34, 31}, {48, 47, 46, 45, 43, 39, 37}, {39, 38, 36, 35}, {49, 48, 46, 44, 43, 42, 36}, {50, 46, 45, 39, 35}, {48, 46, 42, 37, 34}, {47, 46, 39, 35}, {47, 44, 43, 41, 39}, {47, 43, 42, 36}, {49, 46, 44, 42}, {43, 36}, {35}, {44, 43, 41}, {45, 41}, {44, 41}, {47, 42}, {42}, {42}, {}, {}, {}, {}, {}, {}, {}, {}, {}, {}];
n_opt = 150;
dur = [1, 8, 24, 4, 11, 25, 7, 12, 24, 9, 28, 29, 8, 12, 28, 2, 15, 21, 18, 20, 26, 2, 23, 29, 13, 19, 28, 27, 28, 29, 1, 4, 27, 2, 9, 14, 9, 23, 25, 3, 11, 18, 3, 14, 15, 4, 18, 29, 1, 15, 17, 6, 11, 19, 17, 18, 23, 15, 16, 18, 6, 24, 27, 1, 11, 22, 15, 20, 24, 5, 18, 21, 13, 16, 26, 12, 25, 29, 13, 19, 29, 13, 19, 21, 20, 29, 30, 3, 21, 23, 1, 9, 11, 6, 21, 25, 3, 15, 29, 19, 28, 29, 13, 14, 15, 1, 6, 7, 2, 5, 19, 3, 5, 6, 16, 20, 29, 7, 16, 30, 9, 14, 18, 2, 6, 15, 20, 24, 25, 1, 3, 30, 9, 20, 23, 3, 9, 18, 13, 21, 25, 17, 20, 28, 1, 13, 19, 14, 20, 26];
rreq = [|4, 4, 2, 3, 3, 3, 5, 4, 4, 3, 3, 2, 4, 4, 4, 2, 2, 2, 4, 2, 2, 3, 2, 2, 3, 2, 2, 2, 2, 2, 3, 1, 1, 3, 3, 3, 3, 1, 1, 2, 2, 2, 2, 1, 1, 3, 3, 3, 4, 4, 4, 1, 1, 1, 4, 4, 4, 4, 4, 2, 4, 4, 4, 3, 2, 2, 2, 1, 1, 3, 2, 1, 4, 3, 3, 4, 4, 4, 4, 3, 3, 4, 3, 3, 1, 1, 1, 3, 3, 3, 4, 3, 3, 3, 3, 1, 3, 3, 3, 4, 4, 2, 3, 3, 3, 5, 4, 4, 1, 1, 1, 5, 3, 3, 5, 4, 4, 4, 3, 1, 5, 2, 2, 5, 3, 3, 2, 1, 1, 4, 4, 4, 3, 2, 2, 4, 3, 1, 1, 1, 1, 4, 4, 4, 5, 3, 3, 5, 4, 4
 |3, 2, 2, 4, 4, 4, 3, 3, 3, 3, 3, 1, 5, 5, 5, 2, 2, 2, 4, 4, 4, 4, 3, 3, 5, 3, 1, 2, 1, 1, 1, 1, 1, 3, 2, 2, 1, 1, 1, 5, 3, 3, 5, 5, 5, 1, 1, 1, 5, 4, 4, 3, 3, 2, 1, 1, 1, 2, 1, 1, 2, 1, 1, 4, 4, 4, 5, 4, 4, 4, 4, 4, 1, 1, 1, 4, 2, 1, 3, 3, 1, 3, 3, 3, 4, 3, 3, 1, 1, 1, 5, 5, 5, 3, 3, 2, 3, 3, 3, 3, 3, 3, 4, 3, 3, 4, 4, 4, 3, 2, 2, 1, 1, 1, 4, 4, 4, 4, 4, 4, 5, 2, 1, 4, 3, 3, 2, 2, 2, 4, 3, 2, 4, 4, 4, 3, 2, 2, 3, 2, 2, 2, 2, 2, 2, 1, 1, 4, 3, 2
 |3, 3, 2, 5, 4, 2, 4, 2, 1, 4, 4, 2, 5, 5, 5, 4, 3, 3, 3, 3, 3, 3, 1, 1, 1, 1, 1, 5, 4, 3, 4, 3, 1, 4, 4, 3, 1, 1, 1, 1, 1, 1, 3, 2, 2, 5, 3, 3, 1, 1, 1, 4, 3, 3, 5, 4, 4, 3, 1, 1, 5, 5, 5, 3, 3, 1, 4, 4, 4, 4, 2, 1, 4, 2, 1, 3, 2, 1, 3, 2, 2, 3, 1, 1, 5, 2, 1, 5, 5, 5, 4, 2, 2, 5, 4, 3, 3, 2, 2, 2, 2, 1, 2, 2, 2, 2, 1, 1, 3, 3, 2, 1, 1, 1, 4, 4, 2, 4, 3, 3, 4, 3, 2, 3, 2, 1, 1, 1, 1, 4, 4, 2, 3, 2, 2, 5, 3, 3, 4, 4, 4, 3, 3, 2, 1, 1, 1, 2, 2, 2
 |4, 4, 3, 1, 1, 1, 1, 1, 1, 4, 2, 2, 4, 3, 3, 2, 2, 2, 4, 3, 3, 3, 2, 1, 3, 3, 3, 3, 3, 2, 2, 2, 2, 1, 1, 1, 2, 2, 2, 3, 3, 1, 4, 3, 3, 4, 4, 4, 2, 2, 1, 5, 3, 2, 5, 4, 3, 4, 4, 2, 2, 2, 2, 4, 4, 4, 5, 5, 5, 5, 3, 1, 4, 2, 1, 2, 2, 1, 2, 2, 1, 3, 3, 3, 5, 4, 4, 4, 2, 1, 2, 1, 1, 3, 2, 2, 4, 3, 3, 4, 4, 4, 3, 2, 1, 2, 2, 1, 1, 1, 1, 4, 4, 4, 1, 1, 1, 3, 2, 2, 2, 1, 1, 1, 1, 1, 4, 4, 4, 3, 2, 2, 2, 2, 1, 3, 2, 2, 5, 3, 3, 1, 1, 1, 1, 1, 1, 3, 2, 2
 |10, 7, 5, 5, 3, 3, 10, 6, 5, 21, 20, 16, 22, 20, 13, 12, 7, 3, 21, 14, 11, 17, 14, 13, 13, 8, 3, 14, 10, 7, 22, 14, 11, 16, 7, 7, 22, 19, 19, 23, 14, 9, 6, 5, 3, 21, 19, 16, 13, 10, 9, 20, 20, 17, 24, 22, 19, 10, 9, 8, 11, 9, 8, 18, 17, 16, 19, 16, 10, 15, 8, 6, 27, 24, 21, 27, 27, 23, 23, 20, 16, 20, 18, 17, 23, 16, 11, 21, 15, 10, 26, 21, 17, 28, 25, 24, 20, 15, 13, 23, 19, 15, 28, 13, 8, 17, 13, 6, 25, 22, 17, 4, 3, 3, 25, 20, 12, 12, 8, 7, 14, 11, 8, 27, 24, 23, 23, 22, 22, 21, 17, 8, 18, 12, 11, 21, 10, 9, 23, 19, 16, 6, 5, 4, 15, 14, 11, 14, 10, 7
 |26, 11, 11, 7, 6, 6, 11, 11, 11, 15, 12, 12, 5, 5, 5, 23, 11, 6, 15, 11, 9, 1, 1, 1, 20, 20, 20, 2, 2, 2, 22, 22, 13, 26, 22, 16, 14, 11, 4, 30, 23, 10, 30, 29, 28, 23, 15, 9, 15, 12, 10, 8, 5, 5, 21, 10, 9, 8, 7, 6, 12, 11, 11, 18, 13, 12, 25, 19, 12, 22, 21, 20, 7, 4, 4, 25, 23, 21, 21, 17, 17, 4, 4, 4, 28, 27, 25, 11, 8, 8, 20, 16, 15, 26, 20, 16, 28, 22, 11, 28, 26, 26, 26, 23, 22, 16, 8, 7, 20, 17, 9, 24, 20, 17, 17, 15, 14, 13, 13, 13, 18, 17, 16, 29, 27, 25, 5, 4, 1, 26, 22, 13, 27, 16, 8, 16, 16, 9, 14, 8, 7, 28, 25, 25, 25, 25, 25, 22, 19, 18
 |16, 13, 4, 11, 9, 6, 18, 11, 5, 23, 20, 19, 16, 12, 10, 10, 8, 7, 8, 7, 7, 5, 5, 5, 20, 20, 10, 25, 25, 17, 24, 16, 6, 20, 18, 17, 14, 11, 6, 12, 11, 10, 25, 25, 25, 24, 19, 18, 21, 8, 5, 18, 13, 9, 23, 20, 20, 21, 19, 19, 24, 24, 24, 27, 21, 19, 15, 12, 2, 24, 20, 19, 25, 17, 7, 24, 23, 21, 21, 19, 19, 21, 14, 8, 25, 15, 15, 26, 24, 21, 26, 24, 22, 23, 17, 13, 10, 10, 9, 22, 21, 10, 8, 8, 7, 28, 28, 28, 22, 20, 15, 23, 20, 15, 12, 6, 5, 11, 11, 11, 26, 25, 23, 11, 10, 6, 12, 10, 2, 20, 16, 12, 7, 5, 4, 10, 10, 10, 22, 19, 12, 18, 18, 14, 24, 21, 20, 21, 14, 13
 |11, 8, 6, 17, 9, 4, 25, 20, 14, 23, 20, 12, 18, 13, 5, 28, 21, 9, 22, 20, 15, 4, 4, 2, 22, 21, 20, 18, 9, 4, 23, 17, 14, 18, 10, 7, 3, 2, 2, 24, 18, 15, 19, 16, 12, 6, 3, 3, 29, 27, 24, 29, 27, 26, 17, 17, 17, 12, 12, 6, 22, 14, 11, 19, 12, 2, 5, 2, 1, 24, 23, 20, 22, 20, 3, 29, 29, 28, 6, 6, 4, 24, 19, 14, 18, 15, 13, 25, 14, 12, 19, 19, 15, 30, 27, 26, 21, 18, 14, 25, 18, 18, 22, 18, 16, 6, 4, 2, 16, 14, 14, 15, 13, 9, 19, 19, 17, 23, 23, 23, 4, 3, 1, 22, 18, 17, 3, 1, 1, 20, 15, 12, 24, 18, 15, 22, 20, 15, 18, 14, 2, 17, 16, 14, 19, 14, 11, 20, 17, 9|];